c description: Random 3-CNF over 14 variables and 59 clauses
c generator: CNFgen (0.9.2)
c copyright: (C) 2012-2022 Massimo Lauria <massimo.lauria@uniroma1.it>
c url: https://massimolauria.net/cnfgen
c command line: cnfgen --output CNF_4.28/14_bit_59_218.cnf randkcnf 3 14 59
c
p cnf 14 59
-7 10 11 0
-4 7 -14 0
-6 -13 -14 0
2 -6 14 0
9 12 13 0
1 2 -7 0
-7 -8 9 0
1 4 12 0
-1 3 9 0
1 4 -10 0
4 -9 -10 0
-7 9 -14 0
-4 6 7 0
-1 -3 6 0
-4 -5 11 0
1 6 -9 0
-4 -6 12 0
-5 11 -14 0
-3 -4 -6 0
-1 -5 9 0
-7 9 10 0
-6 10 11 0
-3 4 11 0
4 6 -12 0
-4 -6 14 0
6 12 -13 0
-4 -9 11 0
-8 13 14 0
-3 12 -13 0
6 9 -14 0
-3 -9 12 0
-8 10 -11 0
1 4 6 0
-8 12 -14 0
-8 -9 -12 0
3 7 9 0
-4 10 -14 0
2 5 -13 0
-2 -4 -10 0
-6 -7 12 0
5 -8 13 0
-1 -5 12 0
1 10 -12 0
-5 6 -9 0
3 -5 -13 0
-1 -4 7 0
5 -9 14 0
-6 -11 14 0
-3 -4 10 0
-5 -9 -10 0
5 -11 -12 0
1 -9 12 0
2 -4 -13 0
-9 -12 14 0
4 -8 -9 0
3 -6 14 0
-2 6 9 0
-2 -10 -12 0
-10 -11 12 0
